benchmarks/VRPTW/TSPTW/solution/n150w40.004.txt.solution
1 48 87 142 20 36 39 61 108 77 46 133 84 94 128 9 85 66 150 68 109 101 57 143 38 73 50 53 11 54 129 86 15 42 116 115 119 134 72 131 140 146 56 92 91 126 49 79 47 78 12 25 96 71 26 75 27 98 127 30 113 102 97 4 122 44 55 125 10 59 28 107 58 62 64 74 120 114 31 148 14 105 124 112 60 139 103 45 6 32 29 136 149 80 93 111 7 51 118 104 65 123 130 40 8 2 76 21 89 22 121 17 88 13 41 82 34 70 144 106 52 19 67 23 117 137 110 16 18 43 33 63 24 83 95 81 5 138 37 141 69 147 90 100 135 99 35 132 151 3 145 
764
